c File: flat100_3_0.col
c
c SOURCE: Joseph Culberson (joe@cs.ualberta.ca)
c DESCRIPTION: Quasi-random coloring problem
c              generated with flatness = 0
c                             probability = 0.072
c                             known coloring = 3
c                             random seed = 1089
c              Creation Date:  Thu Jun  4 18:56:56 1998
c Maximum degree = 8 Minimum degree = 0
c p edge 100 239
c cnf created by edge2cnf
p cnf 300 1117
-1 -2 0
-1 -3 0
-2 -3 0
1 2 3 0
-4 -5 0
-4 -6 0
-5 -6 0
4 5 6 0
-7 -8 0
-7 -9 0
-8 -9 0
7 8 9 0
-10 -11 0
-10 -12 0
-11 -12 0
10 11 12 0
-13 -14 0
-13 -15 0
-14 -15 0
13 14 15 0
-16 -17 0
-16 -18 0
-17 -18 0
16 17 18 0
-19 -20 0
-19 -21 0
-20 -21 0
19 20 21 0
-22 -23 0
-22 -24 0
-23 -24 0
22 23 24 0
-25 -26 0
-25 -27 0
-26 -27 0
25 26 27 0
-28 -29 0
-28 -30 0
-29 -30 0
28 29 30 0
-31 -32 0
-31 -33 0
-32 -33 0
31 32 33 0
-34 -35 0
-34 -36 0
-35 -36 0
34 35 36 0
-37 -38 0
-37 -39 0
-38 -39 0
37 38 39 0
-40 -41 0
-40 -42 0
-41 -42 0
40 41 42 0
-43 -44 0
-43 -45 0
-44 -45 0
43 44 45 0
-46 -47 0
-46 -48 0
-47 -48 0
46 47 48 0
-49 -50 0
-49 -51 0
-50 -51 0
49 50 51 0
-52 -53 0
-52 -54 0
-53 -54 0
52 53 54 0
-55 -56 0
-55 -57 0
-56 -57 0
55 56 57 0
-58 -59 0
-58 -60 0
-59 -60 0
58 59 60 0
-61 -62 0
-61 -63 0
-62 -63 0
61 62 63 0
-64 -65 0
-64 -66 0
-65 -66 0
64 65 66 0
-67 -68 0
-67 -69 0
-68 -69 0
67 68 69 0
-70 -71 0
-70 -72 0
-71 -72 0
70 71 72 0
-73 -74 0
-73 -75 0
-74 -75 0
73 74 75 0
-76 -77 0
-76 -78 0
-77 -78 0
76 77 78 0
-79 -80 0
-79 -81 0
-80 -81 0
79 80 81 0
-82 -83 0
-82 -84 0
-83 -84 0
82 83 84 0
-85 -86 0
-85 -87 0
-86 -87 0
85 86 87 0
-88 -89 0
-88 -90 0
-89 -90 0
88 89 90 0
-91 -92 0
-91 -93 0
-92 -93 0
91 92 93 0
-94 -95 0
-94 -96 0
-95 -96 0
94 95 96 0
-97 -98 0
-97 -99 0
-98 -99 0
97 98 99 0
-100 -101 0
-100 -102 0
-101 -102 0
100 101 102 0
-103 -104 0
-103 -105 0
-104 -105 0
103 104 105 0
-106 -107 0
-106 -108 0
-107 -108 0
106 107 108 0
-109 -110 0
-109 -111 0
-110 -111 0
109 110 111 0
-112 -113 0
-112 -114 0
-113 -114 0
112 113 114 0
-115 -116 0
-115 -117 0
-116 -117 0
115 116 117 0
-118 -119 0
-118 -120 0
-119 -120 0
118 119 120 0
-121 -122 0
-121 -123 0
-122 -123 0
121 122 123 0
-124 -125 0
-124 -126 0
-125 -126 0
124 125 126 0
-127 -128 0
-127 -129 0
-128 -129 0
127 128 129 0
-130 -131 0
-130 -132 0
-131 -132 0
130 131 132 0
-133 -134 0
-133 -135 0
-134 -135 0
133 134 135 0
-136 -137 0
-136 -138 0
-137 -138 0
136 137 138 0
-139 -140 0
-139 -141 0
-140 -141 0
139 140 141 0
-142 -143 0
-142 -144 0
-143 -144 0
142 143 144 0
-145 -146 0
-145 -147 0
-146 -147 0
145 146 147 0
-148 -149 0
-148 -150 0
-149 -150 0
148 149 150 0
-151 -152 0
-151 -153 0
-152 -153 0
151 152 153 0
-154 -155 0
-154 -156 0
-155 -156 0
154 155 156 0
-157 -158 0
-157 -159 0
-158 -159 0
157 158 159 0
-160 -161 0
-160 -162 0
-161 -162 0
160 161 162 0
-163 -164 0
-163 -165 0
-164 -165 0
163 164 165 0
-166 -167 0
-166 -168 0
-167 -168 0
166 167 168 0
-169 -170 0
-169 -171 0
-170 -171 0
169 170 171 0
-172 -173 0
-172 -174 0
-173 -174 0
172 173 174 0
-175 -176 0
-175 -177 0
-176 -177 0
175 176 177 0
-178 -179 0
-178 -180 0
-179 -180 0
178 179 180 0
-181 -182 0
-181 -183 0
-182 -183 0
181 182 183 0
-184 -185 0
-184 -186 0
-185 -186 0
184 185 186 0
-187 -188 0
-187 -189 0
-188 -189 0
187 188 189 0
-190 -191 0
-190 -192 0
-191 -192 0
190 191 192 0
-193 -194 0
-193 -195 0
-194 -195 0
193 194 195 0
-196 -197 0
-196 -198 0
-197 -198 0
196 197 198 0
-199 -200 0
-199 -201 0
-200 -201 0
199 200 201 0
-202 -203 0
-202 -204 0
-203 -204 0
202 203 204 0
-205 -206 0
-205 -207 0
-206 -207 0
205 206 207 0
-208 -209 0
-208 -210 0
-209 -210 0
208 209 210 0
-211 -212 0
-211 -213 0
-212 -213 0
211 212 213 0
-214 -215 0
-214 -216 0
-215 -216 0
214 215 216 0
-217 -218 0
-217 -219 0
-218 -219 0
217 218 219 0
-220 -221 0
-220 -222 0
-221 -222 0
220 221 222 0
-223 -224 0
-223 -225 0
-224 -225 0
223 224 225 0
-226 -227 0
-226 -228 0
-227 -228 0
226 227 228 0
-229 -230 0
-229 -231 0
-230 -231 0
229 230 231 0
-232 -233 0
-232 -234 0
-233 -234 0
232 233 234 0
-235 -236 0
-235 -237 0
-236 -237 0
235 236 237 0
-238 -239 0
-238 -240 0
-239 -240 0
238 239 240 0
-241 -242 0
-241 -243 0
-242 -243 0
241 242 243 0
-244 -245 0
-244 -246 0
-245 -246 0
244 245 246 0
-247 -248 0
-247 -249 0
-248 -249 0
247 248 249 0
-250 -251 0
-250 -252 0
-251 -252 0
250 251 252 0
-253 -254 0
-253 -255 0
-254 -255 0
253 254 255 0
-256 -257 0
-256 -258 0
-257 -258 0
256 257 258 0
-259 -260 0
-259 -261 0
-260 -261 0
259 260 261 0
-262 -263 0
-262 -264 0
-263 -264 0
262 263 264 0
-265 -266 0
-265 -267 0
-266 -267 0
265 266 267 0
-268 -269 0
-268 -270 0
-269 -270 0
268 269 270 0
-271 -272 0
-271 -273 0
-272 -273 0
271 272 273 0
-274 -275 0
-274 -276 0
-275 -276 0
274 275 276 0
-277 -278 0
-277 -279 0
-278 -279 0
277 278 279 0
-280 -281 0
-280 -282 0
-281 -282 0
280 281 282 0
-283 -284 0
-283 -285 0
-284 -285 0
283 284 285 0
-286 -287 0
-286 -288 0
-287 -288 0
286 287 288 0
-289 -290 0
-289 -291 0
-290 -291 0
289 290 291 0
-292 -293 0
-292 -294 0
-293 -294 0
292 293 294 0
-295 -296 0
-295 -297 0
-296 -297 0
295 296 297 0
-298 -299 0
-298 -300 0
-299 -300 0
298 299 300 0
-136 -1 0
-137 -2 0
-138 -3 0
-268 -1 0
-269 -2 0
-270 -3 0
-130 -4 0
-131 -5 0
-132 -6 0
-184 -4 0
-185 -5 0
-186 -6 0
-241 -4 0
-242 -5 0
-243 -6 0
-133 -7 0
-134 -8 0
-135 -9 0
-157 -7 0
-158 -8 0
-159 -9 0
-187 -7 0
-188 -8 0
-189 -9 0
-208 -7 0
-209 -8 0
-210 -9 0
-220 -7 0
-221 -8 0
-222 -9 0
-274 -7 0
-275 -8 0
-276 -9 0
-298 -7 0
-299 -8 0
-300 -9 0
-109 -10 0
-110 -11 0
-111 -12 0
-133 -10 0
-134 -11 0
-135 -12 0
-148 -10 0
-149 -11 0
-150 -12 0
-163 -10 0
-164 -11 0
-165 -12 0
-220 -10 0
-221 -11 0
-222 -12 0
-232 -10 0
-233 -11 0
-234 -12 0
-103 -13 0
-104 -14 0
-105 -15 0
-121 -13 0
-122 -14 0
-123 -15 0
-217 -13 0
-218 -14 0
-219 -15 0
-265 -13 0
-266 -14 0
-267 -15 0
-271 -13 0
-272 -14 0
-273 -15 0
-130 -16 0
-131 -17 0
-132 -18 0
-238 -16 0
-239 -17 0
-240 -18 0
-259 -16 0
-260 -17 0
-261 -18 0
-277 -16 0
-278 -17 0
-279 -18 0
-118 -19 0
-119 -20 0
-120 -21 0
-136 -19 0
-137 -20 0
-138 -21 0
-154 -19 0
-155 -20 0
-156 -21 0
-202 -19 0
-203 -20 0
-204 -21 0
-220 -19 0
-221 -20 0
-222 -21 0
-223 -19 0
-224 -20 0
-225 -21 0
-277 -19 0
-278 -20 0
-279 -21 0
-142 -22 0
-143 -23 0
-144 -24 0
-190 -22 0
-191 -23 0
-192 -24 0
-196 -22 0
-197 -23 0
-198 -24 0
-199 -22 0
-200 -23 0
-201 -24 0
-211 -22 0
-212 -23 0
-213 -24 0
-241 -22 0
-242 -23 0
-243 -24 0
-157 -25 0
-158 -26 0
-159 -27 0
-163 -25 0
-164 -26 0
-165 -27 0
-187 -25 0
-188 -26 0
-189 -27 0
-214 -25 0
-215 -26 0
-216 -27 0
-238 -25 0
-239 -26 0
-240 -27 0
-184 -28 0
-185 -29 0
-186 -30 0
-211 -28 0
-212 -29 0
-213 -30 0
-232 -28 0
-233 -29 0
-234 -30 0
-283 -28 0
-284 -29 0
-285 -30 0
-295 -28 0
-296 -29 0
-297 -30 0
-139 -31 0
-140 -32 0
-141 -33 0
-148 -31 0
-149 -32 0
-150 -33 0
-169 -31 0
-170 -32 0
-171 -33 0
-175 -31 0
-176 -32 0
-177 -33 0
-205 -31 0
-206 -32 0
-207 -33 0
-226 -31 0
-227 -32 0
-228 -33 0
-289 -31 0
-290 -32 0
-291 -33 0
-103 -34 0
-104 -35 0
-105 -36 0
-115 -34 0
-116 -35 0
-117 -36 0
-145 -34 0
-146 -35 0
-147 -36 0
-211 -34 0
-212 -35 0
-213 -36 0
-265 -34 0
-266 -35 0
-267 -36 0
-268 -34 0
-269 -35 0
-270 -36 0
-103 -37 0
-104 -38 0
-105 -39 0
-196 -37 0
-197 -38 0
-198 -39 0
-271 -37 0
-272 -38 0
-273 -39 0
-142 -40 0
-143 -41 0
-144 -42 0
-280 -40 0
-281 -41 0
-282 -42 0
-298 -40 0
-299 -41 0
-300 -42 0
-166 -43 0
-167 -44 0
-168 -45 0
-172 -43 0
-173 -44 0
-174 -45 0
-175 -43 0
-176 -44 0
-177 -45 0
-202 -43 0
-203 -44 0
-204 -45 0
-247 -43 0
-248 -44 0
-249 -45 0
-286 -43 0
-287 -44 0
-288 -45 0
-295 -43 0
-296 -44 0
-297 -45 0
-145 -46 0
-146 -47 0
-147 -48 0
-205 -46 0
-206 -47 0
-207 -48 0
-208 -46 0
-209 -47 0
-210 -48 0
-214 -46 0
-215 -47 0
-216 -48 0
-289 -46 0
-290 -47 0
-291 -48 0
-127 -49 0
-128 -50 0
-129 -51 0
-136 -49 0
-137 -50 0
-138 -51 0
-187 -49 0
-188 -50 0
-189 -51 0
-199 -49 0
-200 -50 0
-201 -51 0
-202 -49 0
-203 -50 0
-204 -51 0
-223 -49 0
-224 -50 0
-225 -51 0
-250 -49 0
-251 -50 0
-252 -51 0
-286 -49 0
-287 -50 0
-288 -51 0
-109 -52 0
-110 -53 0
-111 -54 0
-112 -52 0
-113 -53 0
-114 -54 0
-127 -55 0
-128 -56 0
-129 -57 0
-205 -55 0
-206 -56 0
-207 -57 0
-130 -58 0
-131 -59 0
-132 -60 0
-133 -58 0
-134 -59 0
-135 -60 0
-163 -58 0
-164 -59 0
-165 -60 0
-253 -58 0
-254 -59 0
-255 -60 0
-286 -58 0
-287 -59 0
-288 -60 0
-196 -61 0
-197 -62 0
-198 -63 0
-247 -61 0
-248 -62 0
-249 -63 0
-127 -64 0
-128 -65 0
-129 -66 0
-154 -64 0
-155 -65 0
-156 -66 0
-157 -64 0
-158 -65 0
-159 -66 0
-199 -64 0
-200 -65 0
-201 -66 0
-280 -64 0
-281 -65 0
-282 -66 0
-292 -64 0
-293 -65 0
-294 -66 0
-109 -67 0
-110 -68 0
-111 -69 0
-124 -67 0
-125 -68 0
-126 -69 0
-157 -67 0
-158 -68 0
-159 -69 0
-196 -67 0
-197 -68 0
-198 -69 0
-292 -67 0
-293 -68 0
-294 -69 0
-106 -70 0
-107 -71 0
-108 -72 0
-136 -70 0
-137 -71 0
-138 -72 0
-154 -70 0
-155 -71 0
-156 -72 0
-244 -70 0
-245 -71 0
-246 -72 0
-292 -70 0
-293 -71 0
-294 -72 0
-121 -73 0
-122 -74 0
-123 -75 0
-124 -73 0
-125 -74 0
-126 -75 0
-235 -73 0
-236 -74 0
-237 -75 0
-244 -73 0
-245 -74 0
-246 -75 0
-292 -73 0
-293 -74 0
-294 -75 0
-127 -76 0
-128 -77 0
-129 -78 0
-166 -76 0
-167 -77 0
-168 -78 0
-208 -76 0
-209 -77 0
-210 -78 0
-172 -79 0
-173 -80 0
-174 -81 0
-178 -79 0
-179 -80 0
-180 -81 0
-277 -79 0
-278 -80 0
-279 -81 0
-103 -82 0
-104 -83 0
-105 -84 0
-118 -82 0
-119 -83 0
-120 -84 0
-175 -82 0
-176 -83 0
-177 -84 0
-235 -82 0
-236 -83 0
-237 -84 0
-259 -82 0
-260 -83 0
-261 -84 0
-106 -85 0
-107 -86 0
-108 -87 0
-121 -85 0
-122 -86 0
-123 -87 0
-142 -85 0
-143 -86 0
-144 -87 0
-214 -85 0
-215 -86 0
-216 -87 0
-268 -85 0
-269 -86 0
-270 -87 0
-298 -85 0
-299 -86 0
-300 -87 0
-106 -88 0
-107 -89 0
-108 -90 0
-232 -88 0
-233 -89 0
-234 -90 0
-262 -88 0
-263 -89 0
-264 -90 0
-286 -88 0
-287 -89 0
-288 -90 0
-154 -91 0
-155 -92 0
-156 -93 0
-184 -91 0
-185 -92 0
-186 -93 0
-208 -91 0
-209 -92 0
-210 -93 0
-253 -91 0
-254 -92 0
-255 -93 0
-115 -94 0
-116 -95 0
-117 -96 0
-160 -94 0
-161 -95 0
-162 -96 0
-226 -94 0
-227 -95 0
-228 -96 0
-262 -94 0
-263 -95 0
-264 -96 0
-214 -97 0
-215 -98 0
-216 -99 0
-217 -97 0
-218 -98 0
-219 -99 0
-247 -97 0
-248 -98 0
-249 -99 0
-298 -97 0
-299 -98 0
-300 -99 0
-106 -100 0
-107 -101 0
-108 -102 0
-151 -100 0
-152 -101 0
-153 -102 0
-163 -100 0
-164 -101 0
-165 -102 0
-175 -100 0
-176 -101 0
-177 -102 0
-259 -100 0
-260 -101 0
-261 -102 0
-277 -100 0
-278 -101 0
-279 -102 0
-289 -100 0
-290 -101 0
-291 -102 0
-205 -103 0
-206 -104 0
-207 -105 0
-238 -103 0
-239 -104 0
-240 -105 0
-268 -103 0
-269 -104 0
-270 -105 0
-295 -103 0
-296 -104 0
-297 -105 0
-211 -106 0
-212 -107 0
-213 -108 0
-214 -106 0
-215 -107 0
-216 -108 0
-223 -106 0
-224 -107 0
-225 -108 0
-292 -106 0
-293 -107 0
-294 -108 0
-217 -112 0
-218 -113 0
-219 -114 0
-220 -112 0
-221 -113 0
-222 -114 0
-286 -112 0
-287 -113 0
-288 -114 0
-295 -112 0
-296 -113 0
-297 -114 0
-253 -115 0
-254 -116 0
-255 -117 0
-298 -115 0
-299 -116 0
-300 -117 0
-211 -118 0
-212 -119 0
-213 -120 0
-274 -118 0
-275 -119 0
-276 -120 0
-223 -121 0
-224 -122 0
-225 -123 0
-244 -121 0
-245 -122 0
-246 -123 0
-220 -124 0
-221 -125 0
-222 -126 0
-259 -124 0
-260 -125 0
-261 -126 0
-280 -124 0
-281 -125 0
-282 -126 0
-295 -124 0
-296 -125 0
-297 -126 0
-226 -127 0
-227 -128 0
-228 -129 0
-250 -127 0
-251 -128 0
-252 -129 0
-298 -127 0
-299 -128 0
-300 -129 0
-220 -130 0
-221 -131 0
-222 -132 0
-238 -130 0
-239 -131 0
-240 -132 0
-259 -130 0
-260 -131 0
-261 -132 0
-289 -130 0
-290 -131 0
-291 -132 0
-211 -133 0
-212 -134 0
-213 -135 0
-232 -133 0
-233 -134 0
-234 -135 0
-268 -133 0
-269 -134 0
-270 -135 0
-298 -133 0
-299 -134 0
-300 -135 0
-223 -136 0
-224 -137 0
-225 -138 0
-280 -136 0
-281 -137 0
-282 -138 0
-286 -136 0
-287 -137 0
-288 -138 0
-253 -139 0
-254 -140 0
-255 -141 0
-271 -139 0
-272 -140 0
-273 -141 0
-277 -139 0
-278 -140 0
-279 -141 0
-289 -139 0
-290 -140 0
-291 -141 0
-265 -142 0
-266 -143 0
-267 -144 0
-271 -142 0
-272 -143 0
-273 -144 0
-208 -145 0
-209 -146 0
-210 -147 0
-220 -145 0
-221 -146 0
-222 -147 0
-256 -145 0
-257 -146 0
-258 -147 0
-271 -145 0
-272 -146 0
-273 -147 0
-202 -148 0
-203 -149 0
-204 -150 0
-223 -151 0
-224 -152 0
-225 -153 0
-226 -151 0
-227 -152 0
-228 -153 0
-208 -154 0
-209 -155 0
-210 -156 0
-214 -154 0
-215 -155 0
-216 -156 0
-274 -154 0
-275 -155 0
-276 -156 0
-265 -160 0
-266 -161 0
-267 -162 0
-226 -163 0
-227 -164 0
-228 -165 0
-253 -163 0
-254 -164 0
-255 -165 0
-268 -163 0
-269 -164 0
-270 -165 0
-226 -166 0
-227 -167 0
-228 -168 0
-241 -166 0
-242 -167 0
-243 -168 0
-274 -166 0
-275 -167 0
-276 -168 0
-289 -166 0
-290 -167 0
-291 -168 0
-229 -169 0
-230 -170 0
-231 -171 0
-274 -169 0
-275 -170 0
-276 -171 0
-205 -172 0
-206 -173 0
-207 -174 0
-238 -172 0
-239 -173 0
-240 -174 0
-241 -175 0
-242 -176 0
-243 -177 0
-262 -175 0
-263 -176 0
-264 -177 0
-259 -178 0
-260 -179 0
-261 -180 0
-262 -178 0
-263 -179 0
-264 -180 0
-211 -181 0
-212 -182 0
-213 -183 0
-238 -184 0
-239 -185 0
-240 -186 0
-280 -184 0
-281 -185 0
-282 -186 0
-286 -184 0
-287 -185 0
-288 -186 0
-241 -187 0
-242 -188 0
-243 -189 0
-253 -187 0
-254 -188 0
-255 -189 0
-277 -187 0
-278 -188 0
-279 -189 0
-295 -187 0
-296 -188 0
-297 -189 0
-268 -190 0
-269 -191 0
-270 -192 0
-271 -190 0
-272 -191 0
-273 -192 0
